
Gurobi 11.0.1 (win64) logging started Wed May 15 14:42:24 2024

Set parameter LogFile to value "output/solver_log7.txt"
Gurobi Optimizer version 11.0.1 build v11.0.1rc0 (win64 - Windows 11.0 (22631.2))

CPU model: 11th Gen Intel(R) Core(TM) i7-1165G7 @ 2.80GHz, instruction set [SSE2|AVX|AVX2|AVX512]
Thread count: 4 physical cores, 8 logical processors, using up to 8 threads

Optimize a model with 2220 rows, 430 columns and 41554 nonzeros
Model fingerprint: 0xa8382207
Variable types: 248 continuous, 182 integer (182 binary)
Coefficient statistics:
  Matrix range     [4e-01, 1e+05]
  Objective range  [1e+00, 1e+02]
  Bounds range     [1e+00, 1e+00]
  RHS range        [1e-02, 1e+05]

User MIP start produced solution with objective 39803.4 (0.00s)
User MIP start produced solution with objective 39803.4 (0.01s)
Loaded user MIP start with objective 39803.4

Presolve removed 93 rows and 94 columns
Presolve time: 0.04s
Presolved: 2127 rows, 336 columns, 40846 nonzeros
Variable types: 234 continuous, 102 integer (98 binary)

Root relaxation: objective 4.340728e+04, 761 iterations, 0.04 seconds (0.08 work units)

    Nodes    |    Current Node    |     Objective Bounds      |     Work
 Expl Unexpl |  Obj  Depth IntInf | Incumbent    BestBd   Gap | It/Node Time

     0     0 43407.2778    0   14 39803.3550 43407.2778  9.05%     -    0s
     0     0 43228.9790    0   13 39803.3550 43228.9790  8.61%     -    0s
     0     0 41767.7501    0   18 39803.3550 41767.7501  4.94%     -    0s
     0     0 41102.3128    0   21 39803.3550 41102.3128  3.26%     -    0s
     0     0 41102.3128    0   21 39803.3550 41102.3128  3.26%     -    0s
     0     0 41102.3128    0   23 39803.3550 41102.3128  3.26%     -    0s
     0     0 41102.3128    0   19 39803.3550 41102.3128  3.26%     -    0s
     0     0 41102.3128    0   23 39803.3550 41102.3128  3.26%     -    0s
     0     0 41102.3128    0   24 39803.3550 41102.3128  3.26%     -    0s
     0     0 41102.3128    0   25 39803.3550 41102.3128  3.26%     -    0s
     0     0 41102.3128    0   27 39803.3550 41102.3128  3.26%     -    0s
     0     0 40952.3124    0   21 39803.3550 40952.3124  2.89%     -    0s
     0     0 40896.2889    0   26 39803.3550 40896.2889  2.75%     -    0s
     0     0 40811.8690    0   32 39803.3550 40811.8690  2.53%     -    0s
     0     0 40780.9207    0   37 39803.3550 40780.9207  2.46%     -    0s
     0     0 40529.0345    0   36 39803.3550 40529.0345  1.82%     -    0s
     0     0 40468.0704    0   41 39803.3550 40468.0704  1.67%     -    0s
     0     0 40210.1729    0   37 39803.3550 40210.1729  1.02%     -    0s
     0     0 40004.2973    0   39 39803.3550 40004.2973  0.50%     -    1s
     0     0 40004.2973    0   39 39803.3550 40004.2973  0.50%     -    1s
     0     2 40004.2973    0   39 39803.3550 40004.2973  0.50%     -    1s
*   52    22              11    39807.579543 39808.1372  0.00%   159    1s

Cutting planes:
  Gomory: 3
  Implied bound: 1
  MIR: 27
  RLT: 5
  Relax-and-lift: 3

Explored 54 nodes (15793 simplex iterations) in 1.55 seconds (2.86 work units)
Thread count was 8 (of 8 available processors)

Solution count 3: 39807.6 39807.6 39803.4 

Optimal solution found (tolerance 1.00e-04)
Best objective 3.980757954321e+04, best bound 3.980813719992e+04, gap 0.0014%
